Route #1: 4 28 7 39 50 5 18
Route #2: 23 20 49 36 1 17 10 43
Route #3: 35 38 9 33 21 45 26 29
Route #4: 44 3 22 53 15
Route #5: 13 11 19 8 31 40 48 37 32
Route #6: 16 6 27 12 2 14
Route #7: 52 34 41 46 42 24 51 47 25 30
Cost 1171
Time 0.099998
